U_400_9.txt

VEHICLE     CAPACITY  LOCATIONS  CUSTOMER  OPTIONS  PRIORITIES  NUMTYPS
10		150		481		400		800		3		4

CUSTOMER  DEMAND
0	 16
1	 10
2	 14
3	 13
4	 16
5	 20
6	 11
7	 18
8	 10
9	 10
10	 12
11	 14
12	 14
13	 14
14	 16
15	 20
16	 12
17	 20
18	 10
19	 20
20	 20
21	 14
22	 11
23	 13
24	 10
25	 15
26	 10
27	 18
28	 11
29	 16
30	 14
31	 14
32	 13
33	 13
34	 20
35	 12
36	 15
37	 16
38	 20
39	 10
40	 17
41	 10
42	 16
43	 13
44	 10
45	 17
46	 10
47	 13
48	 15
49	 16
50	 10
51	 19
52	 18
53	 10
54	 13
55	 11
56	 17
57	 10
58	 13
59	 14
60	 15
61	 15
62	 18
63	 10
64	 14
65	 12
66	 18
67	 10
68	 13
69	 20
70	 19
71	 20
72	 14
73	 15
74	 20
75	 11
76	 16
77	 10
78	 20
79	 20
80	 19
81	 20
82	 14
83	 18
84	 11
85	 19
86	 16
87	 13
88	 19
89	 18
90	 14
91	 14
92	 13
93	 10
94	 11
95	 17
96	 16
97	 11
98	 13
99	 20
100	 10
101	 10
102	 13
103	 16
104	 18
105	 11
106	 14
107	 10
108	 19
109	 15
110	 16
111	 13
112	 12
113	 16
114	 20
115	 10
116	 11
117	 18
118	 19
119	 17
120	 16
121	 17
122	 17
123	 14
124	 19
125	 19
126	 16
127	 18
128	 18
129	 19
130	 17
131	 16
132	 11
133	 15
134	 13
135	 15
136	 18
137	 19
138	 18
139	 11
140	 17
141	 18
142	 14
143	 12
144	 11
145	 18
146	 17
147	 19
148	 11
149	 12
150	 11
151	 18
152	 13
153	 15
154	 12
155	 15
156	 19
157	 19
158	 13
159	 12
160	 14
161	 15
162	 12
163	 18
164	 18
165	 18
166	 20
167	 20
168	 14
169	 12
170	 13
171	 13
172	 16
173	 16
174	 16
175	 18
176	 13
177	 12
178	 12
179	 14
180	 10
181	 18
182	 15
183	 15
184	 15
185	 12
186	 13
187	 14
188	 17
189	 16
190	 16
191	 18
192	 15
193	 16
194	 19
195	 14
196	 12
197	 18
198	 17
199	 13
200	 15
201	 15
202	 17
203	 18
204	 12
205	 14
206	 13
207	 19
208	 10
209	 10
210	 11
211	 15
212	 11
213	 18
214	 17
215	 16
216	 10
217	 17
218	 20
219	 13
220	 16
221	 11
222	 13
223	 10
224	 17
225	 18
226	 16
227	 19
228	 14
229	 12
230	 15
231	 14
232	 12
233	 11
234	 12
235	 16
236	 16
237	 18
238	 18
239	 19
240	 11
241	 17
242	 15
243	 14
244	 20
245	 14
246	 15
247	 14
248	 19
249	 10
250	 18
251	 13
252	 14
253	 15
254	 19
255	 10
256	 13
257	 15
258	 15
259	 17
260	 18
261	 15
262	 11
263	 11
264	 19
265	 15
266	 10
267	 18
268	 18
269	 12
270	 11
271	 17
272	 18
273	 19
274	 16
275	 12
276	 17
277	 18
278	 12
279	 17
280	 15
281	 11
282	 13
283	 17
284	 14
285	 20
286	 13
287	 10
288	 13
289	 18
290	 15
291	 19
292	 10
293	 15
294	 18
295	 15
296	 19
297	 16
298	 18
299	 18
300	 18
301	 17
302	 12
303	 12
304	 16
305	 17
306	 10
307	 17
308	 10
309	 19
310	 17
311	 13
312	 12
313	 18
314	 11
315	 20
316	 15
317	 16
318	 14
319	 14
320	 16
321	 14
322	 20
323	 10
324	 15
325	 15
326	 14
327	 16
328	 13
329	 19
330	 11
331	 20
332	 18
333	 13
334	 20
335	 11
336	 19
337	 15
338	 15
339	 15
340	 15
341	 18
342	 16
343	 19
344	 11
345	 11
346	 19
347	 20
348	 10
349	 12
350	 10
351	 13
352	 12
353	 20
354	 16
355	 18
356	 20
357	 19
358	 12
359	 14
360	 18
361	 16
362	 12
363	 16
364	 14
365	 20
366	 17
367	 13
368	 16
369	 10
370	 10
371	 15
372	 16
373	 11
374	 13
375	 12
376	 12
377	 10
378	 14
379	 17
380	 16
381	 16
382	 14
383	 20
384	 10
385	 16
386	 18
387	 11
388	 20
389	 10
390	 15
391	 16
392	 19
393	 15
394	 15
395	 20
396	 12
397	 14
398	 15
399	 20

LOCATION  XCOORD  YCOORD  CAP  READY  DUE  TYP  SERVICETIME
0		44		45		-1		0		720	 0		0
1		28		16		-1		472		592		 2		6
2		48		15		-1		464		704		 2		6
3		1		37		-1		103		343		 2		6
4		46		10		-1		539		659		 2		6
5		5		22		-1		426		546		 2		6
6		40		35		-1		43		163		 2		6
7		48		13		-1		360		720		 2		6
8		45		16		-1		82		322		 2		6
9		24		36		-1		311		551		 2		6
10		8		3		-1		451		691		 2		6
11		2		5		-1		360		720		 2		6
12		12		11		-1		89		329		 2		6
13		14		15		-1		229		349		 2		6
14		46		33		-1		588		708		 2		6
15		35		5		-1		360		720		 2		6
16		43		41		-1		417		537		 2		6
17		49		2		-1		315		555		 2		6
18		21		49		-1		456		576		 2		6
19		25		24		-1		196		436		 2		6
20		41		18		-1		17		137		 2		6
21		12		25		-1		319		559		 2		6
22		34		4		-1		360		720		 2		6
23		35		11		-1		360		720		 2		6
24		37		9		-1		0		360		 2		6
25		9		18		-1		360		720		 2		6
26		23		28		-1		0		360		 2		6
27		6		22		-1		318		558		 2		6
28		6		2		-1		397		517		 2		6
29		15		13		-1		360		720		 2		6
30		6		13		-1		360		720		 2		6
31		33		43		-1		500		620		 2		6
32		31		45		-1		360		720		 2		6
33		29		22		-1		0		360		 2		6
34		16		28		-1		354		594		 2		6
35		19		23		-1		60		180		 2		6
36		27		6		-1		360		720		 2		6
37		49		50		-1		53		173		 2		6
38		41		1		-1		360		720		 2		6
39		45		41		-1		569		689		 2		6
40		16		40		-1		298		538		 2		6
41		25		38		-1		24		144		 2		6
42		13		43		-1		356		596		 2		6
43		5		8		-1		189		309		 2		6
44		47		24		-1		0		360		 2		6
45		5		11		-1		360		720		 2		6
46		38		39		-1		360		720		 2		6
47		44		33		-1		190		430		 2		6
48		36		26		-1		0		360		 2		6
49		8		23		-1		386		506		 2		6
50		32		12		-1		360		720		 2		6
51		12		16		-1		205		325		 2		6
52		24		38		-1		360		720		 2		6
53		14		23		-1		0		360		 2		6
54		7		42		-1		195		435		 2		6
55		2		19		-1		308		548		 2		6
56		25		49		-1		0		360		 2		6
57		6		43		-1		362		482		 2		6
58		27		43		-1		299		539		 2		6
59		20		26		-1		360		720		 2		6
60		25		11		-1		60		180		 2		6
61		16		3		-1		458		578		 2		6
62		29		12		-1		7		127		 2		6
63		1		30		-1		510		630		 2		6
64		7		46		-1		106		346		 2		6
65		1		43		-1		344		584		 2		6
66		42		43		-1		413		533		 2		6
67		23		25		-1		360		720		 2		6
68		2		36		-1		321		561		 2		6
69		44		20		-1		360		720		 2		6
70		35		18		-1		360		720		 2		6
71		29		8		-1		24		144		 2		6
72		50		41		-1		0		360		 2		6
73		36		50		-1		96		216		 2		6
74		47		2		-1		214		454		 2		6
75		26		12		-1		360		720		 2		6
76		22		33		-1		0		360		 2		6
77		36		11		-1		503		623		 2		6
78		45		43		-1		360		720		 2		6
79		34		41		-1		98		338		 2		6
80		42		3		-1		578		698		 2		6
81		44		38		-1		0		360		 2		6
82		18		25		-1		364		484		 2		6
83		43		13		-1		0		360		 2		6
84		25		9		-1		236		356		 2		6
85		28		47		-1		130		250		 2		6
86		34		19		-1		0		360		 2		6
87		6		25		-1		226		346		 2		6
88		28		16		-1		521		641		 2		6
89		39		46		-1		170		290		 2		6
90		6		1		-1		122		242		 2		6
91		23		6		-1		0		360		 2		6
92		34		34		-1		54		174		 2		6
93		29		38		-1		137		257		 2		6
94		44		15		-1		87		327		 2		6
95		20		43		-1		330		570		 2		6
96		3		14		-1		0		360		 2		6
97		22		7		-1		360		720		 2		6
98		37		45		-1		558		678		 2		6
99		6		43		-1		360		720		 2		6
100		41		46		-1		360		720		 2		6
101		34		19		-1		360		720		 2		6
102		7		36		-1		385		505		 2		6
103		13		26		-1		74		194		 2		6
104		13		32		-1		0		360		 2		6
105		23		42		-1		360		720		 2		6
106		10		48		-1		371		491		 2		6
107		15		23		-1		0		360		 2		6
108		1		34		-1		467		587		 2		6
109		2		19		-1		360		720		 2		6
110		32		40		-1		419		659		 2		6
111		8		12		-1		419		539		 2		6
112		11		41		-1		113		233		 2		6
113		24		26		-1		360		720		 2		6
114		22		23		-1		208		448		 2		6
115		6		48		-1		490		610		 2		6
116		50		3		-1		360		720		 2		6
117		32		14		-1		360		720		 2		6
118		21		24		-1		69		189		 2		6
119		12		8		-1		399		519		 2		6
120		42		50		-1		0		360		 2		6
121		2		19		-1		360		720		 2		6
122		28		5		-1		360		720		 2		6
123		46		11		-1		41		281		 2		6
124		6		10		-1		360		720		 2		6
125		49		50		-1		480		600		 2		6
126		31		36		-1		0		360		 2		6
127		3		41		-1		0		360		 2		6
128		42		40		-1		588		708		 2		6
129		46		22		-1		252		492		 2		6
130		12		43		-1		0		360		 2		6
131		50		39		-1		0		360		 2		6
132		29		1		-1		360		720		 2		6
133		5		2		-1		360		720		 2		6
134		11		18		-1		543		663		 2		6
135		23		23		-1		0		360		 2		6
136		42		13		-1		360		720		 2		6
137		4		43		-1		483		603		 2		6
138		9		29		-1		0		360		 2		6
139		10		17		-1		0		360		 2		6
140		27		50		-1		154		274		 2		6
141		13		31		-1		0		360		 2		6
142		43		3		-1		81		201		 2		6
143		28		41		-1		360		720		 2		6
144		10		49		-1		129		369		 2		6
145		39		18		-1		178		298		 2		6
146		10		1		-1		0		360		 2		6
147		18		46		-1		16		136		 2		6
148		49		33		-1		360		720		 2		6
149		3		43		-1		0		360		 2		6
150		33		28		-1		0		360		 2		6
151		29		24		-1		360		720		 2		6
152		6		3		-1		144		384		 2		6
153		17		34		-1		404		524		 2		6
154		42		34		-1		28		148		 2		6
155		19		28		-1		455		695		 2		6
156		12		22		-1		360		720		 2		6
157		4		5		-1		0		360		 2		6
158		29		37		-1		0		360		 2		6
159		25		46		-1		205		325		 2		6
160		16		11		-1		229		349		 2		6
161		35		46		-1		559		679		 2		6
162		23		19		-1		360		720		 2		6
163		34		35		-1		360		720		 2		6
164		46		29		-1		0		360		 2		6
165		24		7		-1		76		316		 2		6
166		33		8		-1		400		520		 2		6
167		12		2		-1		53		173		 2		6
168		20		36		-1		153		393		 2		6
169		41		21		-1		238		478		 2		6
170		33		24		-1		317		557		 2		6
171		24		6		-1		360		720		 2		6
172		22		22		-1		263		503		 2		6
173		20		25		-1		0		360		 2		6
174		21		35		-1		394		514		 2		6
175		24		45		-1		0		360		 2		6
176		27		35		-1		360		720		 2		6
177		49		19		-1		360		720		 2		6
178		36		47		-1		360		720		 2		6
179		12		2		-1		360		720		 2		6
180		32		38		-1		153		273		 2		6
181		39		38		-1		208		448		 2		6
182		30		35		-1		0		360		 2		6
183		38		28		-1		360		720		 2		6
184		49		37		-1		360		720		 2		6
185		43		6		-1		360		720		 2		6
186		22		14		-1		596		716		 2		6
187		19		46		-1		0		360		 2		6
188		24		35		-1		470		590		 2		6
189		26		49		-1		399		519		 2		6
190		23		43		-1		176		296		 2		6
191		21		1		-1		37		157		 2		6
192		3		13		-1		84		204		 2		6
193		20		6		-1		493		613		 2		6
194		5		27		-1		0		360		 2		6
195		2		6		-1		451		571		 2		6
196		24		16		-1		394		634		 2		6
197		36		9		-1		427		547		 2		6
198		31		25		-1		0		360		 2		6
199		42		20		-1		179		299		 2		6
200		16		47		-1		0		360		 2		6
201		37		14		-1		123		363		 2		6
202		7		1		-1		186		426		 2		6
203		39		32		-1		379		619		 2		6
204		1		45		-1		164		404		 2		6
205		43		46		-1		222		342		 2		6
206		16		43		-1		217		337		 2		6
207		22		5		-1		360		720		 2		6
208		43		34		-1		360		720		 2		6
209		5		8		-1		360		720		 2		6
210		20		15		-1		177		417		 2		6
211		30		23		-1		360		720		 2		6
212		49		40		-1		185		305		 2		6
213		49		38		-1		0		360		 2		6
214		20		20		-1		0		360		 2		6
215		33		45		-1		451		571		 2		6
216		13		29		-1		498		618		 2		6
217		48		7		-1		458		578		 2		6
218		47		10		-1		364		484		 2		6
219		32		13		-1		45		285		 2		6
220		49		24		-1		360		720		 2		6
221		36		14		-1		360		720		 2		6
222		11		38		-1		568		688		 2		6
223		21		43		-1		257		497		 2		6
224		46		35		-1		0		360		 2		6
225		20		36		-1		0		360		 2		6
226		18		7		-1		446		566		 2		6
227		30		25		-1		0		360		 2		6
228		22		26		-1		360		720		 2		6
229		28		31		-1		487		607		 2		6
230		46		41		-1		25		145		 2		6
231		24		29		-1		0		360		 2		6
232		15		44		-1		546		666		 2		6
233		26		37		-1		360		720		 2		6
234		30		10		-1		407		527		 2		6
235		37		18		-1		360		720		 2		6
236		19		37		-1		392		632		 2		6
237		24		21		-1		67		187		 2		6
238		5		26		-1		237		357		 2		6
239		11		39		-1		0		360		 2		6
240		48		33		-1		252		492		 2		6
241		28		9		-1		0		360		 2		6
242		17		42		-1		0		360		 2		6
243		38		16		-1		369		489		 2		6
244		9		24		-1		0		360		 2		6
245		33		1		-1		556		676		 2		6
246		40		18		-1		146		266		 2		6
247		36		24		-1		0		360		 2		6
248		7		31		-1		95		215		 2		6
249		38		18		-1		360		720		 2		6
250		22		29		-1		403		523		 2		6
251		4		2		-1		231		351		 2		6
252		2		33		-1		540		660		 2		6
253		11		24		-1		310		550		 2		6
254		33		5		-1		67		187		 2		6
255		29		45		-1		360		720		 2		6
256		5		6		-1		360		720		 2		6
257		35		8		-1		409		529		 2		6
258		34		18		-1		360		720		 2		6
259		20		28		-1		389		509		 2		6
260		9		11		-1		40		160		 2		6
261		36		10		-1		371		491		 2		6
262		41		1		-1		0		360		 2		6
263		1		1		-1		360		720		 2		6
264		12		50		-1		181		301		 2		6
265		5		50		-1		0		360		 2		6
266		32		18		-1		439		679		 2		6
267		38		46		-1		360		720		 2		6
268		46		28		-1		360		720		 2		6
269		22		50		-1		456		576		 2		6
270		4		7		-1		155		395		 2		6
271		45		16		-1		0		360		 2		6
272		2		31		-1		0		360		 2		6
273		27		20		-1		0		360		 2		6
274		38		30		-1		578		698		 2		6
275		33		8		-1		538		658		 2		6
276		11		26		-1		515		635		 2		6
277		3		48		-1		581		701		 2		6
278		36		45		-1		200		440		 2		6
279		3		36		-1		565		685		 2		6
280		50		26		-1		0		360		 2		6
281		21		50		-1		47		167		 2		6
282		9		27		-1		0		360		 2		6
283		36		14		-1		360		720		 2		6
284		24		36		-1		221		341		 2		6
285		26		4		-1		554		674		 2		6
286		31		15		-1		360		720		 2		6
287		18		26		-1		0		360		 2		6
288		49		27		-1		23		143		 2		6
289		30		3		-1		0		360		 2		6
290		10		19		-1		418		538		 2		6
291		2		8		-1		360		720		 2		6
292		14		30		-1		0		360		 2		6
293		7		6		-1		422		542		 2		6
294		28		24		-1		16		136		 2		6
295		10		21		-1		459		579		 2		6
296		23		1		-1		0		360		 2		6
297		31		27		-1		65		305		 2		6
298		20		41		-1		360		720		 2		6
299		35		8		-1		0		360		 2		6
300		30		23		-1		588		708		 2		6
301		30		30		-1		463		583		 2		6
302		45		35		-1		36		276		 2		6
303		14		39		-1		317		557		 2		6
304		8		23		-1		475		595		 2		6
305		38		35		-1		360		720		 2		6
306		46		23		-1		583		703		 2		6
307		16		50		-1		456		576		 2		6
308		35		38		-1		360		720		 2		6
309		31		21		-1		147		387		 2		6
310		14		38		-1		592		712		 2		6
311		39		27		-1		360		720		 2		6
312		46		2		-1		165		285		 2		6
313		35		44		-1		165		285		 2		6
314		21		47		-1		338		578		 2		6
315		5		17		-1		181		301		 2		6
316		22		9		-1		19		139		 2		6
317		49		16		-1		433		553		 2		6
318		1		32		-1		183		303		 2		6
319		49		30		-1		362		482		 2		6
320		6		49		-1		360		720		 2		6
321		50		42		-1		391		631		 2		6
322		50		49		-1		360		720		 2		6
323		31		25		-1		384		504		 2		6
324		6		1		-1		0		360		 2		6
325		6		27		-1		0		360		 2		6
326		41		48		-1		436		676		 2		6
327		46		4		-1		170		290		 2		6
328		3		7		-1		195		435		 2		6
329		48		20		-1		148		268		 2		6
330		35		5		-1		463		583		 2		6
331		46		1		-1		360		720		 2		6
332		39		25		-1		473		593		 2		6
333		5		36		-1		150		270		 2		6
334		14		28		-1		360		720		 2		6
335		7		36		-1		40		160		 2		6
336		46		11		-1		0		360		 2		6
337		37		18		-1		360		720		 2		6
338		31		30		-1		420		660		 2		6
339		31		16		-1		360		720		 2		6
340		8		21		-1		360		720		 2		6
341		29		28		-1		0		360		 2		6
342		18		39		-1		0		360		 2		6
343		3		49		-1		400		640		 2		6
344		43		8		-1		100		220		 2		6
345		39		25		-1		556		676		 2		6
346		25		18		-1		362		602		 2		6
347		31		3		-1		230		350		 2		6
348		21		7		-1		0		360		 2		6
349		25		50		-1		469		589		 2		6
350		36		33		-1		309		549		 2		6
351		31		20		-1		360		720		 2		6
352		27		25		-1		0		360		 2		6
353		1		33		-1		473		713		 2		6
354		44		35		-1		577		697		 2		6
355		21		42		-1		249		489		 2		6
356		47		5		-1		528		648		 2		6
357		40		29		-1		360		720		 2		6
358		29		20		-1		0		360		 2		6
359		18		45		-1		185		305		 2		6
360		46		26		-1		64		304		 2		6
361		42		23		-1		360		720		 2		6
362		46		36		-1		360		720		 2		6
363		14		44		-1		463		583		 2		6
364		28		47		-1		360		720		 2		6
365		4		3		-1		360		720		 2		6
366		15		5		-1		360		720		 2		6
367		42		24		-1		339		579		 2		6
368		18		21		-1		360		720		 2		6
369		8		47		-1		0		360		 2		6
370		17		21		-1		400		520		 2		6
371		49		15		-1		469		709		 2		6
372		43		2		-1		0		360		 2		6
373		21		35		-1		290		530		 2		6
374		6		25		-1		360		720		 2		6
375		1		24		-1		360		720		 2		6
376		32		50		-1		0		360		 2		6
377		25		37		-1		65		185		 2		6
378		27		32		-1		496		616		 2		6
379		21		42		-1		360		720		 2		6
380		2		44		-1		451		691		 2		6
381		49		29		-1		134		374		 2		6
382		32		6		-1		0		360		 2		6
383		25		34		-1		0		360		 2		6
384		32		18		-1		0		360		 2		6
385		32		16		-1		360		720		 2		6
386		39		1		-1		336		576		 2		6
387		48		22		-1		8		128		 2		6
388		45		24		-1		360		720		 2		6
389		7		3		-1		188		428		 2		6
390		31		41		-1		0		360		 2		6
391		20		7		-1		0		120		 2		6
392		34		35		-1		532		652		 2		6
393		7		29		-1		360		720		 2		6
394		11		35		-1		360		720		 2		6
395		27		19		-1		215		335		 2		6
396		41		4		-1		360		720		 2		6
397		18		38		-1		360		720		 2		6
398		45		25		-1		101		341		 2		6
399		41		50		-1		360		720		 2		6
400		46		12		-1		373		493		 2		6
401		9		40		5		135		615		 1		4
402		32		7		4		0		720		 1		4
403		26		34		5		136		616		 1		4
404		44		12		5		0		720		 1		4
405		24		42		4		0		720		 1		4
406		38		25		5		0		720		 1		4
407		25		28		5		238		718		 1		4
408		32		45		5		23		503		 1		4
409		19		28		4		0		720		 1		4
410		28		22		5		41		521		 1		4
411		45		33		4		0		720		 1		4
412		26		11		5		216		696		 1		4
413		32		21		3		0		720		 1		4
414		44		37		5		0		720		 1		4
415		26		42		5		0		720		 1		4
416		37		15		5		11		491		 1		4
417		32		17		3		0		720		 1		4
418		9		12		3		0		720		 1		4
419		41		25		5		137		617		 1		4
420		23		5		4		0		720		 1		4
421		18		37		5		119		599		 1		4
422		33		43		4		0		720		 1		4
423		18		18		5		4		484		 1		4
424		12		26		5		163		643		 1		4
425		43		25		5		156		636		 1		4
426		35		6		5		51		531		 1		4
427		39		15		5		0		720		 1		4
428		19		5		3		0		720		 1		4
429		28		7		5		18		498		 1		4
430		20		30		5		0		720		 1		4
431		21		32		5		195		675		 1		4
432		7		35		5		34		514		 1		4
433		33		33		5		0		720		 1		4
434		16		37		5		153		633		 1		4
435		28		38		5		66		546		 1		4
436		15		20		5		139		619		 1		4
437		45		10		5		124		604		 1		4
438		10		42		5		107		587		 1		4
439		27		43		5		113		593		 1		4
440		36		26		5		0		720		 1		4
441		5		10		5		199		679		 1		4
442		16		38		5		0		720		 1		4
443		10		16		5		141		621		 1		4
444		35		39		5		24		504		 1		4
445		35		36		4		0		720		 1		4
446		22		23		3		0		720		 1		4
447		23		15		4		0		720		 1		4
448		34		17		5		185		665		 1		4
449		17		29		5		0		720		 1		4
450		37		39		5		11		491		 1		4
451		17		5		4		0		720		 1		4
452		35		27		3		0		720		 1		4
453		44		5		5		85		565		 1		4
454		27		42		5		191		671		 1		4
455		42		27		5		190		670		 1		4
456		34		20		5		214		694		 1		4
457		41		35		3		0		720		 1		4
458		23		28		5		215		695		 1		4
459		37		24		5		0		720		 1		4
460		36		31		5		239		719		 1		4
461		21		33		5		40		520		 1		4
462		28		9		5		0		720		 1		4
463		12		7		3		0		720		 1		4
464		25		26		5		143		623		 1		4
465		41		30		5		94		574		 1		4
466		14		25		3		0		720		 1		4
467		30		28		5		172		652		 1		4
468		38		19		5		130		610		 1		4
469		43		26		3		0		720		 1		4
470		12		39		5		153		633		 1		4
471		15		12		4		0		720		 1		4
472		39		23		4		0		720		 1		4
473		13		40		5		237		717		 1		4
474		31		39		3		0		720		 1		4
475		32		19		4		0		720		 1		4
476		33		13		4		0		720		 1		4
477		36		36		3		0		720		 1		4
478		35		45		5		14		494		 1		4
479		45		33		5		212		692		 1		4
480		28		33		5		72		552		 1		4
OPTION  LOCATION  CUSTOMER  PRIO  SERVICETIME   COST
0		480		0		0		2		0
1		415		1		0		2		0
2		416		2		0		2		0
3		455		3		0		2		0
4		469		4		0		2		0
5		439		5		0		2		0
6		441		6		0		2		0
7		470		7		0		2		0
8		479		8		0		2		0
9		453		9		0		2		0
10		469		10		0		2		0
11		447		11		0		2		0
12		434		12		0		2		0
13		457		13		0		2		0
14		429		14		0		2		0
15		442		15		0		2		0
16		428		16		0		2		0
17		438		17		0		2		0
18		440		18		0		2		0
19		434		19		0		2		0
20		477		20		0		2		0
21		418		21		0		2		0
22		424		22		0		2		0
23		432		23		0		2		0
24		411		24		0		2		0
25		438		25		0		2		0
26		414		26		0		2		0
27		411		27		0		2		0
28		461		28		0		2		0
29		470		29		0		2		0
30		417		30		0		2		0
31		427		31		0		2		0
32		454		32		0		2		0
33		425		33		0		2		0
34		456		34		0		2		0
35		416		35		0		2		0
36		429		36		0		2		0
37		479		37		0		2		0
38		415		38		0		2		0
39		439		39		0		2		0
40		432		40		0		2		0
41		442		41		0		2		0
42		431		42		0		2		0
43		473		43		0		2		0
44		409		44		0		2		0
45		461		45		0		2		0
46		433		46		0		2		0
47		412		47		0		2		0
48		479		48		0		2		0
49		433		49		0		2		0
50		433		50		0		2		0
51		446		51		0		2		0
52		469		52		0		2		0
53		441		53		0		2		0
54		408		54		0		2		0
55		453		55		0		2		0
56		442		56		0		2		0
57		472		57		0		2		0
58		480		58		0		2		0
59		454		59		0		2		0
60		411		60		0		2		0
61		442		61		0		2		0
62		455		62		0		2		0
63		441		63		0		2		0
64		421		64		0		2		0
65		428		65		0		2		0
66		417		66		0		2		0
67		441		67		0		2		0
68		449		68		0		2		0
69		448		69		0		2		0
70		409		70		0		2		0
71		416		71		0		2		0
72		439		72		0		2		0
73		407		73		0		2		0
74		401		74		0		2		0
75		432		75		0		2		0
76		430		76		0		2		0
77		463		77		0		2		0
78		424		78		0		2		0
79		439		79		0		2		0
80		1		80		0		5		0
81		2		81		0		5		0
82		3		82		0		5		0
83		4		83		0		5		0
84		5		84		0		5		0
85		6		85		0		5		0
86		7		86		0		5		0
87		8		87		0		5		0
88		9		88		0		5		0
89		10		89		0		5		0
90		11		90		0		5		0
91		12		91		0		5		0
92		13		92		0		5		0
93		14		93		0		5		0
94		15		94		0		5		0
95		16		95		0		5		0
96		17		96		0		5		0
97		18		97		0		5		0
98		19		98		0		5		0
99		20		99		0		5		0
100		21		100		0		5		0
101		22		101		0		5		0
102		23		102		0		5		0
103		24		103		0		5		0
104		25		104		0		5		0
105		26		105		0		5		0
106		27		106		0		5		0
107		28		107		0		5		0
108		29		108		0		5		0
109		30		109		0		5		0
110		31		110		0		5		0
111		32		111		0		5		0
112		33		112		0		5		0
113		34		113		0		5		0
114		35		114		0		5		0
115		36		115		0		5		0
116		37		116		0		5		0
117		38		117		0		5		0
118		39		118		0		5		0
119		40		119		0		5		0
120		41		120		0		5		0
121		42		121		0		5		0
122		43		122		0		5		0
123		44		123		0		5		0
124		45		124		0		5		0
125		46		125		0		5		0
126		47		126		0		5		0
127		48		127		0		5		0
128		49		128		0		5		0
129		50		129		0		5		0
130		51		130		0		5		0
131		52		131		0		5		0
132		53		132		0		5		0
133		54		133		0		5		0
134		55		134		0		5		0
135		56		135		0		5		0
136		57		136		0		5		0
137		58		137		0		5		0
138		59		138		0		5		0
139		60		139		0		5		0
140		61		140		0		5		0
141		62		141		0		5		0
142		63		142		0		5		0
143		64		143		0		5		0
144		65		144		0		5		0
145		66		145		0		5		0
146		67		146		0		5		0
147		68		147		0		5		0
148		69		148		0		5		0
149		70		149		0		5		0
150		71		150		0		5		0
151		72		151		0		5		0
152		73		152		0		5		0
153		74		153		0		5		0
154		75		154		0		5		0
155		76		155		0		5		0
156		77		156		0		5		0
157		78		157		0		5		0
158		79		158		0		5		0
159		80		159		0		5		0
160		81		160		0		5		0
161		411		160		1		2		0
162		82		161		1		5		0
163		446		161		0		2		0
164		83		162		1		5		0
165		428		162		0		2		0
166		84		163		0		5		0
167		448		163		1		2		0
168		85		164		1		5		0
169		424		164		0		2		0
170		86		165		1		5		0
171		450		165		0		2		0
172		87		166		0		5		0
173		411		166		1		2		0
174		88		167		0		5		0
175		447		167		1		2		0
176		89		168		1		5		0
177		450		168		0		2		0
178		90		169		0		5		0
179		408		169		1		2		0
180		91		170		1		5		0
181		473		170		0		2		0
182		92		171		0		5		0
183		440		171		1		2		0
184		93		172		1		5		0
185		415		172		0		2		0
186		94		173		0		5		0
187		470		173		1		2		0
188		95		174		0		5		0
189		440		174		1		2		0
190		96		175		0		5		0
191		463		175		1		2		0
192		97		176		0		5		0
193		408		176		1		2		0
194		98		177		1		5		0
195		471		177		0		2		0
196		99		178		1		5		0
197		401		178		0		2		0
198		100		179		0		5		0
199		444		179		1		2		0
200		101		180		0		5		0
201		417		180		1		2		0
202		102		181		0		5		0
203		470		181		1		2		0
204		103		182		0		5		0
205		409		182		1		2		0
206		104		183		0		5		0
207		424		183		1		2		0
208		105		184		0		5		0
209		448		184		1		2		0
210		106		185		1		5		0
211		473		185		0		2		0
212		107		186		0		5		0
213		402		186		1		2		0
214		108		187		0		5		0
215		473		187		1		2		0
216		109		188		0		5		0
217		436		188		1		2		0
218		110		189		1		5		0
219		408		189		0		2		0
220		111		190		0		5		0
221		463		190		1		2		0
222		112		191		0		5		0
223		470		191		1		2		0
224		113		192		1		5		0
225		446		192		0		2		0
226		114		193		1		5		0
227		405		193		0		2		0
228		115		194		1		5		0
229		440		194		0		2		0
230		116		195		0		5		0
231		426		195		1		2		0
232		117		196		0		5		0
233		448		196		1		2		0
234		118		197		0		5		0
235		459		197		1		2		0
236		119		198		1		5		0
237		471		198		0		2		0
238		120		199		0		5		0
239		470		199		1		2		0
240		121		200		1		5		0
241		436		200		0		2		0
242		122		201		0		5		0
243		458		201		1		2		0
244		123		202		1		5		0
245		479		202		0		2		0
246		124		203		1		5		0
247		418		203		0		2		0
248		125		204		0		5		0
249		411		204		1		2		0
250		126		205		1		5		0
251		422		205		0		2		0
252		127		206		0		5		0
253		470		206		1		2		0
254		128		207		1		5		0
255		477		207		0		2		0
256		129		208		0		5		0
257		474		208		1		2		0
258		130		209		0		5		0
259		407		209		1		2		0
260		131		210		1		5		0
261		479		210		0		2		0
262		132		211		1		5		0
263		462		211		0		2		0
264		133		212		1		5		0
265		463		212		0		2		0
266		134		213		0		5		0
267		423		213		1		2		0
268		135		214		1		5		0
269		473		214		0		2		0
270		136		215		1		5		0
271		437		215		0		2		0
272		137		216		0		5		0
273		421		216		1		2		0
274		138		217		0		5		0
275		468		217		1		2		0
276		139		218		0		5		0
277		471		218		1		2		0
278		140		219		0		5		0
279		439		219		1		2		0
280		141		220		1		5		0
281		413		220		0		2		0
282		142		221		0		5		0
283		425		221		1		2		0
284		143		222		0		5		0
285		416		222		1		2		0
286		144		223		0		5		0
287		473		223		1		2		0
288		145		224		0		5		0
289		448		224		1		2		0
290		146		225		1		5		0
291		451		225		0		2		0
292		147		226		1		5		0
293		438		226		0		2		0
294		148		227		1		5		0
295		404		227		0		2		0
296		149		228		1		5		0
297		425		228		0		2		0
298		150		229		1		5		0
299		460		229		0		2		0
300		151		230		0		5		0
301		448		230		1		2		0
302		152		231		0		5		0
303		478		231		1		2		0
304		153		232		0		5		0
305		442		232		1		2		0
306		154		233		0		5		0
307		432		233		1		2		0
308		155		234		0		5		0
309		430		234		1		2		0
310		156		235		0		5		0
311		443		235		1		2		0
312		157		236		1		5		0
313		443		236		0		2		0
314		158		237		0		5		0
315		409		237		1		2		0
316		159		238		1		5		0
317		408		238		0		2		0
318		160		239		1		5		0
319		463		239		0		2		0
320		161		240		1		5		0
321		444		240		2		2		0
322		422		240		0		2		0
323		162		241		0		5		0
324		410		241		1		2		0
325		446		241		2		2		0
326		163		242		2		5		0
327		467		242		1		2		0
328		439		242		0		2		0
329		164		243		0		5		0
330		411		243		2		2		0
331		479		243		1		2		0
332		165		244		1		5		0
333		440		244		0		2		0
334		436		244		2		2		0
335		166		245		1		5		0
336		402		245		2		2		0
337		468		245		0		2		0
338		167		246		0		5		0
339		444		246		2		2		0
340		420		246		1		2		0
341		168		247		0		5		0
342		415		247		1		2		0
343		466		247		2		2		0
344		169		248		0		5		0
345		468		248		1		2		0
346		419		248		2		2		0
347		170		249		1		5		0
348		480		249		0		2		0
349		457		249		2		2		0
350		171		250		0		5		0
351		429		250		1		2		0
352		462		250		2		2		0
353		172		251		2		5		0
354		446		251		0		2		0
355		401		251		1		2		0
356		173		252		0		5		0
357		458		252		1		2		0
358		437		252		2		2		0
359		174		253		0		5		0
360		431		253		2		2		0
361		403		253		1		2		0
362		175		254		2		5		0
363		405		254		0		2		0
364		439		254		1		2		0
365		176		255		2		5		0
366		403		255		1		2		0
367		443		255		0		2		0
368		177		256		2		5		0
369		460		256		0		2		0
370		458		256		1		2		0
371		178		257		2		5		0
372		422		257		0		2		0
373		440		257		1		2		0
374		179		258		0		5		0
375		463		258		2		2		0
376		428		258		1		2		0
377		180		259		2		5		0
378		477		259		0		2		0
379		435		259		1		2		0
380		181		260		2		5		0
381		448		260		0		2		0
382		435		260		1		2		0
383		182		261		2		5		0
384		474		261		1		2		0
385		403		261		0		2		0
386		183		262		2		5		0
387		460		262		0		2		0
388		465		262		1		2		0
389		184		263		1		5		0
390		414		263		2		2		0
391		479		263		0		2		0
392		185		264		0		5		0
393		453		264		1		2		0
394		455		264		2		2		0
395		186		265		2		5		0
396		412		265		1		2		0
397		471		265		0		2		0
398		187		266		1		5		0
399		442		266		2		2		0
400		439		266		0		2		0
401		188		267		2		5		0
402		435		267		0		2		0
403		480		267		1		2		0
404		189		268		2		5		0
405		408		268		0		2		0
406		439		268		1		2		0
407		190		269		2		5		0
408		471		269		0		2		0
409		472		269		1		2		0
410		191		270		0		5		0
411		462		270		1		2		0
412		428		270		2		2		0
413		192		271		2		5		0
414		441		271		0		2		0
415		408		271		1		2		0
416		193		272		2		5		0
417		478		272		1		2		0
418		401		272		0		2		0
419		194		273		0		5		0
420		466		273		1		2		0
421		414		273		2		2		0
422		195		274		2		5		0
423		441		274		0		2		0
424		411		274		1		2		0
425		196		275		0		5		0
426		457		275		1		2		0
427		458		275		2		2		0
428		197		276		2		5		0
429		426		276		1		2		0
430		468		276		0		2		0
431		198		277		0		5		0
432		421		277		2		2		0
433		447		277		1		2		0
434		199		278		0		5		0
435		468		278		1		2		0
436		460		278		2		2		0
437		200		279		2		5		0
438		473		279		1		2		0
439		408		279		0		2		0
440		201		280		1		5		0
441		433		280		0		2		0
442		419		280		2		2		0
443		202		281		2		5		0
444		428		281		1		2		0
445		431		281		0		2		0
446		203		282		2		5		0
447		460		282		0		2		0
448		467		282		1		2		0
449		204		283		1		5		0
450		473		283		2		2		0
451		415		283		0		2		0
452		205		284		2		5		0
453		450		284		0		2		0
454		414		284		1		2		0
455		206		285		1		5		0
456		434		285		2		2		0
457		475		285		0		2		0
458		207		286		1		5		0
459		451		286		0		2		0
460		429		286		2		2		0
461		208		287		2		5		0
462		411		287		0		2		0
463		479		287		1		2		0
464		209		288		2		5		0
465		463		288		0		2		0
466		443		288		1		2		0
467		210		289		2		5		0
468		436		289		0		2		0
469		424		289		1		2		0
470		211		290		2		5		0
471		413		290		0		2		0
472		456		290		1		2		0
473		212		291		0		5		0
474		414		291		1		2		0
475		415		291		2		2		0
476		213		292		1		5		0
477		405		292		2		2		0
478		416		292		0		2		0
479		214		293		1		5		0
480		423		293		0		2		0
481		447		293		2		2		0
482		215		294		2		5		0
483		480		294		0		2		0
484		441		294		1		2		0
485		216		295		2		5		0
486		449		295		1		2		0
487		434		295		0		2		0
488		217		296		0		5		0
489		426		296		1		2		0
490		427		296		2		2		0
491		218		297		1		5		0
492		404		297		2		2		0
493		437		297		0		2		0
494		219		298		0		5		0
495		464		298		2		2		0
496		412		298		1		2		0
497		220		299		2		5		0
498		469		299		0		2		0
499		455		299		1		2		0
500		221		300		0		5		0
501		437		300		2		2		0
502		413		300		1		2		0
503		222		301		1		5		0
504		470		301		2		2		0
505		432		301		0		2		0
506		223		302		2		5		0
507		433		302		0		2		0
508		444		302		1		2		0
509		224		303		0		5		0
510		457		303		2		2		0
511		479		303		1		2		0
512		225		304		1		5		0
513		442		304		2		2		0
514		422		304		0		2		0
515		226		305		2		5		0
516		466		305		0		2		0
517		460		305		1		2		0
518		227		306		2		5		0
519		452		306		0		2		0
520		442		306		1		2		0
521		228		307		0		5		0
522		458		307		1		2		0
523		409		307		2		2		0
524		229		308		1		5		0
525		480		308		2		2		0
526		433		308		0		2		0
527		230		309		1		5		0
528		436		309		2		2		0
529		458		309		0		2		0
530		231		310		2		5		0
531		462		310		0		2		0
532		449		310		1		2		0
533		232		311		2		5		0
534		438		311		0		2		0
535		470		311		1		2		0
536		233		312		0		5		0
537		424		312		1		2		0
538		468		312		2		2		0
539		234		313		2		5		0
540		476		313		0		2		0
541		462		313		1		2		0
542		235		314		0		5		0
543		448		314		2		2		0
544		416		314		1		2		0
545		236		315		0		5		0
546		434		315		2		2		0
547		421		315		1		2		0
548		237		316		1		5		0
549		446		316		0		2		0
550		456		316		2		2		0
551		238		317		2		5		0
552		474		317		0		2		0
553		434		317		1		2		0
554		239		318		1		5		0
555		401		318		2		2		0
556		473		318		0		2		0
557		240		319		2		5		0
558		414		319		1		2		0
559		479		319		0		2		0
560		241		320		1		5		0
561		242		320		2		5		0
562		472		320		0		2		0
563		243		321		1		5		0
564		244		321		0		5		0
565		430		321		2		2		0
566		245		322		2		5		0
567		246		322		0		5		0
568		468		322		1		2		0
569		247		323		0		5		0
570		248		323		1		5		0
571		444		323		2		2		0
572		249		324		2		5		0
573		250		324		0		5		0
574		468		324		1		2		0
575		251		325		2		5		0
576		252		325		1		5		0
577		419		325		0		2		0
578		253		326		1		5		0
579		254		326		2		5		0
580		460		326		0		2		0
581		255		327		0		5		0
582		256		327		2		5		0
583		408		327		1		2		0
584		257		328		1		5		0
585		258		328		2		5		0
586		456		328		0		2		0
587		259		329		0		5		0
588		260		329		1		5		0
589		458		329		2		2		0
590		261		330		0		5		0
591		262		330		2		5		0
592		438		330		1		2		0
593		263		331		0		5		0
594		264		331		1		5		0
595		480		331		2		2		0
596		265		332		2		5		0
597		266		332		1		5		0
598		417		332		0		2		0
599		267		333		0		5		0
600		268		333		2		5		0
601		420		333		1		2		0
602		269		334		2		5		0
603		270		334		0		5		0
604		418		334		1		2		0
605		271		335		1		5		0
606		272		335		0		5		0
607		409		335		2		2		0
608		273		336		2		5		0
609		274		336		0		5		0
610		475		336		1		2		0
611		275		337		1		5		0
612		276		337		2		5		0
613		424		337		0		2		0
614		277		338		0		5		0
615		278		338		2		5		0
616		418		338		1		2		0
617		279		339		1		5		0
618		280		339		2		5		0
619		455		339		0		2		0
620		281		340		2		5		0
621		282		340		0		5		0
622		424		340		1		2		0
623		283		341		2		5		0
624		284		341		0		5		0
625		477		341		1		2		0
626		285		342		1		5		0
627		286		342		2		5		0
628		401		342		0		2		0
629		287		343		0		5		0
630		288		343		2		5		0
631		430		343		1		2		0
632		289		344		2		5		0
633		290		344		1		5		0
634		438		344		0		2		0
635		291		345		0		5		0
636		292		345		1		5		0
637		409		345		2		2		0
638		293		346		0		5		0
639		294		346		1		5		0
640		448		346		2		2		0
641		295		347		2		5		0
642		296		347		1		5		0
643		416		347		0		2		0
644		297		348		0		5		0
645		298		348		1		5		0
646		403		348		2		2		0
647		299		349		2		5		0
648		300		349		0		5		0
649		410		349		1		2		0
650		301		350		0		5		0
651		302		350		1		5		0
652		480		350		2		2		0
653		303		351		0		5		0
654		304		351		2		5		0
655		473		351		1		2		0
656		305		352		2		5		0
657		306		352		1		5		0
658		401		352		0		2		0
659		307		353		2		5		0
660		308		353		0		5		0
661		466		353		1		2		0
662		309		354		1		5		0
663		310		354		2		5		0
664		418		354		0		2		0
665		311		355		2		5		0
666		312		355		1		5		0
667		417		355		0		2		0
668		313		356		0		5		0
669		314		356		1		5		0
670		444		356		2		2		0
671		315		357		0		5		0
672		316		357		1		5		0
673		468		357		2		2		0
674		317		358		2		5		0
675		318		358		1		5		0
676		427		358		0		2		0
677		319		359		1		5		0
678		320		359		2		5		0
679		479		359		0		2		0
680		321		360		2		5		0
681		322		360		1		5		0
682		411		360		0		2		0
683		323		361		1		5		0
684		324		361		2		5		0
685		458		361		0		2		0
686		325		362		0		5		0
687		326		362		1		5		0
688		476		362		2		2		0
689		327		363		2		5		0
690		328		363		1		5		0
691		453		363		0		2		0
692		329		364		1		5		0
693		330		364		2		5		0
694		426		364		0		2		0
695		331		365		1		5		0
696		332		365		2		5		0
697		444		365		0		2		0
698		333		366		2		5		0
699		334		366		0		5		0
700		466		366		1		2		0
701		335		367		1		5		0
702		336		367		2		5		0
703		401		367		0		2		0
704		337		368		1		5		0
705		338		368		0		5		0
706		405		368		2		2		0
707		339		369		2		5		0
708		340		369		1		5		0
709		476		369		0		2		0
710		341		370		0		5		0
711		342		370		1		5		0
712		428		370		2		2		0
713		343		371		0		5		0
714		344		371		1		5		0
715		458		371		2		2		0
716		345		372		2		5		0
717		346		372		1		5		0
718		404		372		0		2		0
719		347		373		2		5		0
720		348		373		0		5		0
721		445		373		1		2		0
722		349		374		1		5		0
723		350		374		2		5		0
724		433		374		0		2		0
725		351		375		2		5		0
726		352		375		1		5		0
727		410		375		0		2		0
728		353		376		2		5		0
729		354		376		0		5		0
730		432		376		1		2		0
731		355		377		1		5		0
732		356		377		2		5		0
733		437		377		0		2		0
734		357		378		2		5		0
735		358		378		0		5		0
736		423		378		1		2		0
737		359		379		2		5		0
738		360		379		1		5		0
739		416		379		0		2		0
740		361		380		0		5		0
741		362		380		1		5		0
742		411		380		2		2		0
743		363		381		1		5		0
744		364		381		0		5		0
745		470		381		2		2		0
746		365		382		1		5		0
747		366		382		2		5		0
748		441		382		0		2		0
749		367		383		2		5		0
750		368		383		0		5		0
751		436		383		1		2		0
752		369		384		2		5		0
753		370		384		0		5		0
754		438		384		1		2		0
755		371		385		2		5		0
756		372		385		0		5		0
757		414		385		1		2		0
758		373		386		0		5		0
759		374		386		1		5		0
760		431		386		2		2		0
761		375		387		0		5		0
762		376		387		2		5		0
763		456		387		1		2		0
764		377		388		2		5		0
765		378		388		0		5		0
766		410		388		1		2		0
767		379		389		0		5		0
768		380		389		1		5		0
769		439		389		2		2		0
770		381		390		2		5		0
771		382		390		0		5		0
772		462		390		1		2		0
773		383		391		0		5		0
774		384		391		1		5		0
775		448		391		2		2		0
776		385		392		2		5		0
777		386		392		1		5		0
778		452		392		0		2		0
779		387		393		0		5		0
780		388		393		2		5		0
781		455		393		1		2		0
782		389		394		0		5		0
783		390		394		2		5		0
784		411		394		1		2		0
785		391		395		0		5		0
786		392		395		1		5		0
787		420		395		2		2		0
788		393		396		0		5		0
789		394		396		2		5		0
790		406		396		1		2		0
791		395		397		0		5		0
792		396		397		1		5		0
793		424		397		2		2		0
794		397		398		2		5		0
795		398		398		0		5		0
796		425		398		1		2		0
797		399		399		2		5		0
798		400		399		0		5		0
799		465		399		1		2		0
